Automatic mesh
0              ! number of k-points = 0 ->automatic generation scheme 
Gamma 
xxKPxx
0 0 0
