Zr C
   1.0
     0.0000000000000000    2.3291849999999998    2.3291849999999998
     2.3291849999999998    0.0000000000000000    2.3291849999999998
     2.3291849999999998    2.3291849999999998    0.0000000000000000
   1    1
Direct
  0.0000000000000000  0.0000000000000000  0.0000000000000000
  0.5000000000000000  0.5000000000000000  0.5000000000000000
